TOUR_SECTION
68
119
83
61
150
51
87
200
97
49
133
6
76
118
96
69
145
86
91
27
92
11
169
149
100
175
109
95
127
164
122
32
93
116
105
29
157
108
58
115
17
139
30
15
163
137
178
189
194
39
101
7
103
196
153
141
90
66
9
40
186
131
144
123
160
121
48
167
99
110
111
22
94
174
165
46
140
143
161
60
138
35
130
73
79
154
21
135
197
156
56
187
89
142
28
37
12
168
171
126
3
88
128
181
2
120
192
188
166
43
134
50
190
54
13
193
23
129
77
84
67
20
70
195
72
53
55
41
98
146
44
170
179
59
199
62
172
162
10
18
36
125
85
71
52
191
173
185
132
34
47
75
5
151
102
63
65
106
8
112
113
198
155
136
24
31
82
180
107
1
33
114
80
148
183
16
147
176
57
159
4
64
104
182
74
26
38
42
117
78
158
81
124
177
152
25
19
45
14
184
-1
EOF